words_hard_train/2443.qaiger
aag 136 20 0 1 116
2
4
10
12
44
46
78
80
112
114
142
150
152
180
184
204
206
232
244
260
273
6 2 4
8 7 2
14 11 13
16 10 12
18 15 17
20 7 19
22 6 18
24 21 23
26 25 11
28 24 10
30 27 29
32 9 31
34 8 30
36 33 35
38 37 5
40 35 29
42 23 17
48 45 47
50 44 46
52 49 51
54 42 53
56 43 52
58 55 57
60 59 45
62 58 44
64 61 63
66 40 65
68 41 64
70 67 69
72 38 71
74 69 63
76 57 51
82 79 81
84 78 80
86 83 85
88 76 87
90 77 86
92 89 91
94 93 79
96 92 78
98 95 97
100 74 99
102 75 98
104 101 103
106 72 105
108 103 97
110 91 85
116 113 115
118 112 114
120 117 119
122 110 121
124 111 120
126 123 125
128 127 113
130 126 112
132 129 131
134 108 133
136 109 132
138 135 137
140 106 139
144 141 143
146 137 131
148 125 119
154 151 153
156 150 152
158 155 157
160 148 159
162 149 158
164 161 163
166 165 151
168 164 150
170 167 169
172 146 171
174 147 170
176 173 175
178 145 177
182 138 181
186 107 185
188 73 104
190 187 189
192 139 180
194 191 193
196 183 195
198 179 197
200 175 169
202 163 157
208 205 207
210 204 206
212 209 211
214 202 213
216 203 212
218 215 217
220 219 205
222 218 204
224 221 223
226 200 225
228 201 224
230 227 229
234 230 233
236 199 235
238 176 143
240 236 239
242 217 211
246 243 244
248 242 245
250 247 249
252 229 223
254 250 252
256 251 253
258 255 257
262 259 261
264 231 232
266 263 265
268 241 266
270 258 260
272 269 271
i0 1 x1[0]
i1 2 y2[0]
i2 1 x1[1]
i3 2 y2[1]
i4 1 x1[2]
i5 2 y2[2]
i6 1 x1[3]
i7 2 y2[3]
i8 1 x1[4]
i9 2 y2[4]
i10 1 x2[2]
i11 1 x1[5]
i12 2 y2[5]
i13 1 x2[1]
i14 1 x2[0]
i15 1 x1[6]
i16 2 y2[6]
i17 1 x2[3]
i18 2 y2[7]
i19 1 x2[4]
o0 bv[0]
c
simplified
  >
    add
      1 x1
      add
        1 x1
        2 y2
    << 3
      1 x2
