words_hard_train/2443.qaiger.qdimacs
p cnf 136 349
a 1 130 5 102 39 71 75 116 22 56 90 92 0
e 2 3 4 6 7 8 9 10 11 12 13 14 15 16 17 18 19 20 21 23 24 25 26 27 28 29 30 31 32 33 34 35 36 37 38 40 41 42 43 44 45 46 47 48 49 50 51 52 53 54 55 57 58 59 60 61 62 63 64 65 66 67 68 69 70 72 73 74 76 77 78 79 80 81 82 83 84 85 86 87 88 89 91 93 94 95 96 97 98 99 100 101 103 104 105 106 107 108 109 110 111 112 113 114 115 117 118 119 120 121 122 123 124 125 126 127 128 129 131 132 133 134 135 136 0
-1 -2 3 0
1 -3 0
2 -3 0
3 -1 4 0
-3 -4 0
1 -4 0
5 6 7 0
-5 -7 0
-6 -7 0
-5 -6 8 0
5 -8 0
6 -8 0
7 8 9 0
-7 -9 0
-8 -9 0
3 9 10 0
-3 -10 0
-9 -10 0
-3 -9 11 0
3 -11 0
9 -11 0
10 11 12 0
-10 -12 0
-11 -12 0
12 5 13 0
-12 -13 0
-5 -13 0
-12 -5 14 0
12 -14 0
5 -14 0
13 14 15 0
-13 -15 0
-14 -15 0
4 15 16 0
-4 -16 0
-15 -16 0
-4 -15 17 0
4 -17 0
15 -17 0
16 17 18 0
-16 -18 0
-17 -18 0
18 2 19 0
-18 -19 0
-2 -19 0
17 14 20 0
-17 -20 0
-14 -20 0
11 8 21 0
-11 -21 0
-8 -21 0
22 23 24 0
-22 -24 0
-23 -24 0
-22 -23 25 0
22 -25 0
23 -25 0
24 25 26 0
-24 -26 0
-25 -26 0
-21 26 27 0
21 -27 0
-26 -27 0
21 -26 28 0
-21 -28 0
26 -28 0
27 28 29 0
-27 -29 0
-28 -29 0
29 22 30 0
-29 -30 0
-22 -30 0
-29 -22 31 0
29 -31 0
22 -31 0
30 31 32 0
-30 -32 0
-31 -32 0
-20 32 33 0
20 -33 0
-32 -33 0
20 -32 34 0
-20 -34 0
32 -34 0
33 34 35 0
-33 -35 0
-34 -35 0
-19 35 36 0
19 -36 0
-35 -36 0
34 31 37 0
-34 -37 0
-31 -37 0
28 25 38 0
-28 -38 0
-25 -38 0
39 40 41 0
-39 -41 0
-40 -41 0
-39 -40 42 0
39 -42 0
40 -42 0
41 42 43 0
-41 -43 0
-42 -43 0
-38 43 44 0
38 -44 0
-43 -44 0
38 -43 45 0
-38 -45 0
43 -45 0
44 45 46 0
-44 -46 0
-45 -46 0
46 39 47 0
-46 -47 0
-39 -47 0
-46 -39 48 0
46 -48 0
39 -48 0
47 48 49 0
-47 -49 0
-48 -49 0
-37 49 50 0
37 -50 0
-49 -50 0
37 -49 51 0
-37 -51 0
49 -51 0
50 51 52 0
-50 -52 0
-51 -52 0
-36 52 53 0
36 -53 0
-52 -53 0
51 48 54 0
-51 -54 0
-48 -54 0
45 42 55 0
-45 -55 0
-42 -55 0
56 57 58 0
-56 -58 0
-57 -58 0
-56 -57 59 0
56 -59 0
57 -59 0
58 59 60 0
-58 -60 0
-59 -60 0
-55 60 61 0
55 -61 0
-60 -61 0
55 -60 62 0
-55 -62 0
60 -62 0
61 62 63 0
-61 -63 0
-62 -63 0
63 56 64 0
-63 -64 0
-56 -64 0
-63 -56 65 0
63 -65 0
56 -65 0
64 65 66 0
-64 -66 0
-65 -66 0
-54 66 67 0
54 -67 0
-66 -67 0
54 -66 68 0
-54 -68 0
66 -68 0
67 68 69 0
-67 -69 0
-68 -69 0
-53 69 70 0
53 -70 0
-69 -70 0
70 71 72 0
-70 -72 0
-71 -72 0
68 65 73 0
-68 -73 0
-65 -73 0
62 59 74 0
-62 -74 0
-59 -74 0
75 76 77 0
-75 -77 0
-76 -77 0
-75 -76 78 0
75 -78 0
76 -78 0
77 78 79 0
-77 -79 0
-78 -79 0
-74 79 80 0
74 -80 0
-79 -80 0
74 -79 81 0
-74 -81 0
79 -81 0
80 81 82 0
-80 -82 0
-81 -82 0
82 75 83 0
-82 -83 0
-75 -83 0
-82 -75 84 0
82 -84 0
75 -84 0
83 84 85 0
-83 -85 0
-84 -85 0
-73 85 86 0
73 -86 0
-85 -86 0
73 -85 87 0
-73 -87 0
85 -87 0
86 87 88 0
-86 -88 0
-87 -88 0
72 88 89 0
-72 -89 0
-88 -89 0
-69 90 91 0
69 -91 0
-90 -91 0
53 92 93 0
-53 -93 0
-92 -93 0
36 -52 94 0
-36 -94 0
52 -94 0
93 94 95 0
-93 -95 0
-94 -95 0
69 -90 96 0
-69 -96 0
90 -96 0
95 96 97 0
-95 -97 0
-96 -97 0
91 97 98 0
-91 -98 0
-97 -98 0
89 98 99 0
-89 -99 0
-98 -99 0
87 84 100 0
-87 -100 0
-84 -100 0
81 78 101 0
-81 -101 0
-78 -101 0
102 103 104 0
-102 -104 0
-103 -104 0
-102 -103 105 0
102 -105 0
103 -105 0
104 105 106 0
-104 -106 0
-105 -106 0
-101 106 107 0
101 -107 0
-106 -107 0
101 -106 108 0
-101 -108 0
106 -108 0
107 108 109 0
-107 -109 0
-108 -109 0
109 102 110 0
-109 -110 0
-102 -110 0
-109 -102 111 0
109 -111 0
102 -111 0
110 111 112 0
-110 -112 0
-111 -112 0
-100 112 113 0
100 -113 0
-112 -113 0
100 -112 114 0
-100 -114 0
112 -114 0
113 114 115 0
-113 -115 0
-114 -115 0
-115 116 117 0
115 -117 0
-116 -117 0
99 117 118 0
-99 -118 0
-117 -118 0
-88 71 119 0
88 -119 0
-71 -119 0
-118 119 120 0
118 -120 0
-119 -120 0
108 105 121 0
-108 -121 0
-105 -121 0
121 -122 123 0
-121 -123 0
122 -123 0
-121 122 124 0
121 -124 0
-122 -124 0
123 124 125 0
-123 -125 0
-124 -125 0
114 111 126 0
-114 -126 0
-111 -126 0
-125 -126 127 0
125 -127 0
126 -127 0
125 126 128 0
-125 -128 0
-126 -128 0
127 128 129 0
-127 -129 0
-128 -129 0
129 130 131 0
-129 -131 0
-130 -131 0
115 -116 132 0
-115 -132 0
116 -132 0
131 132 133 0
-131 -133 0
-132 -133 0
120 -133 134 0
-120 -134 0
133 -134 0
-129 -130 135 0
129 -135 0
130 -135 0
134 135 136 0
-134 -136 0
-135 -136 0
-136 0
